NAME /Users/henri/Research/solvers/instances/idol-instances/robust/collection/spp_dkp_Lefebvre_et_al_2026/shortest_path_8_8/uncertainty_sets/discrete_knapsack
ROWS
 N  OBJ
 L  primal_lower
COLUMNS
    MARKER    'MARKER'                 'INTORG'
    y[0,1]     OBJ        0
    y[0,1]     primal_lower -2.27
    y[0,2]     OBJ        0
    y[0,2]     primal_lower -1.05
    y[0,3]     OBJ        0
    y[0,3]     primal_lower -1.17
    y[0,4]     OBJ        0
    y[0,4]     primal_lower -1.82
    y[0,5]     OBJ        0
    y[0,5]     primal_lower -1.73
    y[0,6]     OBJ        0
    y[0,6]     primal_lower -4.57
    y[0,7]     OBJ        0
    y[0,7]     primal_lower -1.87
    y[1,0]     OBJ        0
    y[1,0]     primal_lower -3.54
    y[1,2]     OBJ        0
    y[1,2]     primal_lower -3.49
    y[1,3]     OBJ        0
    y[1,3]     primal_lower -1.42
    y[1,4]     OBJ        0
    y[1,4]     primal_lower -1.59
    y[1,5]     OBJ        0
    y[1,5]     primal_lower -1.61
    y[1,6]     OBJ        0
    y[1,6]     primal_lower -0.67
    y[1,7]     OBJ        0
    y[1,7]     primal_lower -4.46
    y[2,0]     OBJ        0
    y[2,0]     primal_lower -4.17
    y[2,1]     OBJ        0
    y[2,1]     primal_lower -2.57
    y[2,3]     OBJ        0
    y[2,3]     primal_lower -1.44
    y[2,5]     OBJ        0
    y[2,5]     primal_lower -4.07
    y[2,6]     OBJ        0
    y[2,6]     primal_lower -3.09
    y[3,0]     OBJ        0
    y[3,0]     primal_lower -1.79
    y[3,1]     OBJ        0
    y[3,1]     primal_lower -2.33
    y[3,2]     OBJ        0
    y[3,2]     primal_lower -2.4
    y[3,5]     OBJ        0
    y[3,5]     primal_lower -4.26
    y[3,6]     OBJ        0
    y[3,6]     primal_lower -2.62
    y[4,0]     OBJ        0
    y[4,0]     primal_lower -3.07
    y[4,1]     OBJ        0
    y[4,1]     primal_lower -0.24
    y[4,5]     OBJ        0
    y[4,5]     primal_lower -1.5
    y[4,6]     OBJ        0
    y[4,6]     primal_lower -0.26
    y[4,7]     OBJ        0
    y[4,7]     primal_lower -0.82
    y[5,0]     OBJ        0
    y[5,0]     primal_lower -4.25
    y[5,1]     OBJ        0
    y[5,1]     primal_lower -4.3
    y[5,2]     OBJ        0
    y[5,2]     primal_lower -3.28
    y[5,3]     OBJ        0
    y[5,3]     primal_lower -3.36
    y[5,4]     OBJ        0
    y[5,4]     primal_lower -2.12
    y[5,6]     OBJ        0
    y[5,6]     primal_lower -4.27
    y[5,7]     OBJ        0
    y[5,7]     primal_lower -1.86
    y[6,0]     OBJ        0
    y[6,0]     primal_lower -3.13
    y[6,1]     OBJ        0
    y[6,1]     primal_lower -2.98
    y[6,2]     OBJ        0
    y[6,2]     primal_lower -2.75
    y[6,3]     OBJ        0
    y[6,3]     primal_lower -1.02
    y[6,4]     OBJ        0
    y[6,4]     primal_lower -3.13
    y[6,5]     OBJ        0
    y[6,5]     primal_lower -4.03
    y[7,0]     OBJ        0
    y[7,0]     primal_lower -3.65
    y[7,1]     OBJ        0
    y[7,1]     primal_lower -1.98
    y[7,4]     OBJ        0
    y[7,4]     primal_lower -4.21
    y[7,5]     OBJ        0
    y[7,5]     primal_lower -3.59
    u[0,1]     OBJ        0
    u[0,1]     primal_lower 88
    u[0,2]     OBJ        0
    u[0,2]     primal_lower 86
    u[0,3]     OBJ        0
    u[0,3]     primal_lower 100
    u[0,4]     OBJ        0
    u[0,4]     primal_lower 35
    u[0,5]     OBJ        0
    u[0,5]     primal_lower 74
    u[0,6]     OBJ        0
    u[0,6]     primal_lower 76
    u[0,7]     OBJ        0
    u[0,7]     primal_lower 79
    u[1,0]     OBJ        0
    u[1,0]     primal_lower 36
    u[1,2]     OBJ        0
    u[1,2]     primal_lower 76
    u[1,3]     OBJ        0
    u[1,3]     primal_lower 78
    u[1,4]     OBJ        0
    u[1,4]     primal_lower 50
    u[1,5]     OBJ        0
    u[1,5]     primal_lower 1
    u[1,6]     OBJ        0
    u[1,6]     primal_lower 89
    u[1,7]     OBJ        0
    u[1,7]     primal_lower 14
    u[2,0]     OBJ        0
    u[2,0]     primal_lower 60
    u[2,1]     OBJ        0
    u[2,1]     primal_lower 36
    u[2,3]     OBJ        0
    u[2,3]     primal_lower 89
    u[2,5]     OBJ        0
    u[2,5]     primal_lower 79
    u[2,6]     OBJ        0
    u[2,6]     primal_lower 14
    u[3,0]     OBJ        0
    u[3,0]     primal_lower 15
    u[3,1]     OBJ        0
    u[3,1]     primal_lower 12
    u[3,2]     OBJ        0
    u[3,2]     primal_lower 19
    u[3,5]     OBJ        0
    u[3,5]     primal_lower 43
    u[3,6]     OBJ        0
    u[3,6]     primal_lower 11
    u[4,0]     OBJ        0
    u[4,0]     primal_lower 76
    u[4,1]     OBJ        0
    u[4,1]     primal_lower 47
    u[4,5]     OBJ        0
    u[4,5]     primal_lower 96
    u[4,6]     OBJ        0
    u[4,6]     primal_lower 10
    u[4,7]     OBJ        0
    u[4,7]     primal_lower 5
    u[5,0]     OBJ        0
    u[5,0]     primal_lower 15
    u[5,1]     OBJ        0
    u[5,1]     primal_lower 45
    u[5,2]     OBJ        0
    u[5,2]     primal_lower 28
    u[5,3]     OBJ        0
    u[5,3]     primal_lower 65
    u[5,4]     OBJ        0
    u[5,4]     primal_lower 86
    u[5,6]     OBJ        0
    u[5,6]     primal_lower 68
    u[5,7]     OBJ        0
    u[5,7]     primal_lower 10
    u[6,0]     OBJ        0
    u[6,0]     primal_lower 29
    u[6,1]     OBJ        0
    u[6,1]     primal_lower 83
    u[6,2]     OBJ        0
    u[6,2]     primal_lower 18
    u[6,3]     OBJ        0
    u[6,3]     primal_lower 6
    u[6,4]     OBJ        0
    u[6,4]     primal_lower 37
    u[6,5]     OBJ        0
    u[6,5]     primal_lower 82
    u[7,0]     OBJ        0
    u[7,0]     primal_lower 84
    u[7,1]     OBJ        0
    u[7,1]     primal_lower 95
    u[7,4]     OBJ        0
    u[7,4]     primal_lower 12
    u[7,5]     OBJ        0
    u[7,5]     primal_lower 68
    MARKER    'MARKER'                 'INTEND'
RHS
    RHS       primal_lower 211
BOUNDS
 LI BND       y[0,1]     0
 UI BND       y[0,1]     1
 LI BND       y[0,2]     0
 UI BND       y[0,2]     1
 LI BND       y[0,3]     0
 UI BND       y[0,3]     1
 LI BND       y[0,4]     0
 UI BND       y[0,4]     1
 LI BND       y[0,5]     0
 UI BND       y[0,5]     1
 LI BND       y[0,6]     0
 UI BND       y[0,6]     1
 LI BND       y[0,7]     0
 UI BND       y[0,7]     1
 LI BND       y[1,0]     0
 UI BND       y[1,0]     1
 LI BND       y[1,2]     0
 UI BND       y[1,2]     1
 LI BND       y[1,3]     0
 UI BND       y[1,3]     1
 LI BND       y[1,4]     0
 UI BND       y[1,4]     1
 LI BND       y[1,5]     0
 UI BND       y[1,5]     1
 LI BND       y[1,6]     0
 UI BND       y[1,6]     1
 LI BND       y[1,7]     0
 UI BND       y[1,7]     1
 LI BND       y[2,0]     0
 UI BND       y[2,0]     1
 LI BND       y[2,1]     0
 UI BND       y[2,1]     1
 LI BND       y[2,3]     0
 UI BND       y[2,3]     1
 LI BND       y[2,5]     0
 UI BND       y[2,5]     1
 LI BND       y[2,6]     0
 UI BND       y[2,6]     1
 LI BND       y[3,0]     0
 UI BND       y[3,0]     1
 LI BND       y[3,1]     0
 UI BND       y[3,1]     1
 LI BND       y[3,2]     0
 UI BND       y[3,2]     1
 LI BND       y[3,5]     0
 UI BND       y[3,5]     1
 LI BND       y[3,6]     0
 UI BND       y[3,6]     1
 LI BND       y[4,0]     0
 UI BND       y[4,0]     1
 LI BND       y[4,1]     0
 UI BND       y[4,1]     1
 LI BND       y[4,5]     0
 UI BND       y[4,5]     1
 LI BND       y[4,6]     0
 UI BND       y[4,6]     1
 LI BND       y[4,7]     0
 UI BND       y[4,7]     1
 LI BND       y[5,0]     0
 UI BND       y[5,0]     1
 LI BND       y[5,1]     0
 UI BND       y[5,1]     1
 LI BND       y[5,2]     0
 UI BND       y[5,2]     1
 LI BND       y[5,3]     0
 UI BND       y[5,3]     1
 LI BND       y[5,4]     0
 UI BND       y[5,4]     1
 LI BND       y[5,6]     0
 UI BND       y[5,6]     1
 LI BND       y[5,7]     0
 UI BND       y[5,7]     1
 LI BND       y[6,0]     0
 UI BND       y[6,0]     1
 LI BND       y[6,1]     0
 UI BND       y[6,1]     1
 LI BND       y[6,2]     0
 UI BND       y[6,2]     1
 LI BND       y[6,3]     0
 UI BND       y[6,3]     1
 LI BND       y[6,4]     0
 UI BND       y[6,4]     1
 LI BND       y[6,5]     0
 UI BND       y[6,5]     1
 LI BND       y[7,0]     0
 UI BND       y[7,0]     1
 LI BND       y[7,1]     0
 UI BND       y[7,1]     1
 LI BND       y[7,4]     0
 UI BND       y[7,4]     1
 LI BND       y[7,5]     0
 UI BND       y[7,5]     1
 LI BND       u[0,1]     0
 UI BND       u[0,1]     1
 LI BND       u[0,2]     0
 UI BND       u[0,2]     1
 LI BND       u[0,3]     0
 UI BND       u[0,3]     1
 LI BND       u[0,4]     0
 UI BND       u[0,4]     1
 LI BND       u[0,5]     0
 UI BND       u[0,5]     1
 LI BND       u[0,6]     0
 UI BND       u[0,6]     1
 LI BND       u[0,7]     0
 UI BND       u[0,7]     1
 LI BND       u[1,0]     0
 UI BND       u[1,0]     1
 LI BND       u[1,2]     0
 UI BND       u[1,2]     1
 LI BND       u[1,3]     0
 UI BND       u[1,3]     1
 LI BND       u[1,4]     0
 UI BND       u[1,4]     1
 LI BND       u[1,5]     0
 UI BND       u[1,5]     1
 LI BND       u[1,6]     0
 UI BND       u[1,6]     1
 LI BND       u[1,7]     0
 UI BND       u[1,7]     1
 LI BND       u[2,0]     0
 UI BND       u[2,0]     1
 LI BND       u[2,1]     0
 UI BND       u[2,1]     1
 LI BND       u[2,3]     0
 UI BND       u[2,3]     1
 LI BND       u[2,5]     0
 UI BND       u[2,5]     1
 LI BND       u[2,6]     0
 UI BND       u[2,6]     1
 LI BND       u[3,0]     0
 UI BND       u[3,0]     1
 LI BND       u[3,1]     0
 UI BND       u[3,1]     1
 LI BND       u[3,2]     0
 UI BND       u[3,2]     1
 LI BND       u[3,5]     0
 UI BND       u[3,5]     1
 LI BND       u[3,6]     0
 UI BND       u[3,6]     1
 LI BND       u[4,0]     0
 UI BND       u[4,0]     1
 LI BND       u[4,1]     0
 UI BND       u[4,1]     1
 LI BND       u[4,5]     0
 UI BND       u[4,5]     1
 LI BND       u[4,6]     0
 UI BND       u[4,6]     1
 LI BND       u[4,7]     0
 UI BND       u[4,7]     1
 LI BND       u[5,0]     0
 UI BND       u[5,0]     1
 LI BND       u[5,1]     0
 UI BND       u[5,1]     1
 LI BND       u[5,2]     0
 UI BND       u[5,2]     1
 LI BND       u[5,3]     0
 UI BND       u[5,3]     1
 LI BND       u[5,4]     0
 UI BND       u[5,4]     1
 LI BND       u[5,6]     0
 UI BND       u[5,6]     1
 LI BND       u[5,7]     0
 UI BND       u[5,7]     1
 LI BND       u[6,0]     0
 UI BND       u[6,0]     1
 LI BND       u[6,1]     0
 UI BND       u[6,1]     1
 LI BND       u[6,2]     0
 UI BND       u[6,2]     1
 LI BND       u[6,3]     0
 UI BND       u[6,3]     1
 LI BND       u[6,4]     0
 UI BND       u[6,4]     1
 LI BND       u[6,5]     0
 UI BND       u[6,5]     1
 LI BND       u[7,0]     0
 UI BND       u[7,0]     1
 LI BND       u[7,1]     0
 UI BND       u[7,1]     1
 LI BND       u[7,4]     0
 UI BND       u[7,4]     1
 LI BND       u[7,5]     0
 UI BND       u[7,5]     1
ENDATA
